p cnf 200 257
-5  -3  -4  0
7  5  6  0
-11  9  -10  0
13  11  -12  0
15  13  14  0
17  -15  16  0
-19  -17  18  0
-21  19  -20  0
23  -21  22  0
27  25  -26  0
31  -29  30  0
-33  -31  -32  0
-37  -35  36  0
-39  -37  38  0
-41  39  -40  0
45  -43  -44  0
-47  45  -46  0
-49  47  -48  0
51  -49  -50  0
-55  -53  -54  0
-57  55  -56  0
-59  57  -58  0
61  -59  60  0
67  -65  -66  0
-69  -67  -68  0
71  69  -70  0
-73  -71  72  0
-75  -73  74  0
77  75  76  0
-81  79  80  0
85  -83  84  0
-87  -85  -86  0
91  -89  -90  0
93  91  92  0
95  93  94  0
97  -95  96  0
99  97  98  0
-101  -99  100  0
117  115  116  0
119  -117  118  0
-125  123  -124  0
-127  -125  126  0
129  127  128  0
133  -131  132  0
-135  133  134  0
-139  137  -138  0
-143  141  -142  0
145  143  144  0
149  147  148  0
-151  -149  150  0
-153  -151  -152  0
155  -153  154  0
-157  -155  156  0
159  157  158  0
-161  159  -160  0
-163  161  162  0
165  -163  -164  0
-167  165  166  0
171  -169  -170  0
-173  -171  -172  0
179  -177  178  0
-181  179  180  0
183  -181  182  0
-187  -185  186  0
189  187  188  0
191  189  190  0
-193  191  192  0
-195  -193  -194  0
-197  -195  196  0
-199  197  -198  0
4  -3  2  0
4  3  -1  0
4  -1  2  0
-6  5  3  0
-6  3  -4  0
-8  -5  6  0
10  9  8  0
10  9  7  0
10  -7  -8  0
-12  -11  10  0
12  -11  -9  0
-14  13  12  0
14  11  12  0
16  -15  14  0
16  -15  13  0
-16  13  -14  0
18  -17  16  0
-20  -19  18  0
20  -19  -17  0
20  17  -18  0
-22  -21  -20  0
24  23  22  0
24  -23  -21  0
26  -25  -23  0
-26  23  24  0
28  -27  -26  0
30  27  28  0
32  29  30  0
-34  31  32  0
36  35  33  0
38  -37  35  0
38  -35  -36  0
-40  -39  -38  0
-40  39  37  0
40  37  38  0
42  -41  40  0
-42  39  40  0
44  43  42  0
-46  45  44  0
-46  45  -43  0
46  -43  44  0
48  -47  45  0
48  45  46  0
-50  49  -47  0
-50  -47  -48  0
-52  -51  50  0
-52  -51  49  0
-54  53  -52  0
54  53  -51  0
54  51  -52  0
56  -55  53  0
-58  57  56  0
-58  -57  55  0
-58  -55  56  0
60  59  -58  0
-60  -59  -57  0
62  -61  60  0
62  -59  -60  0
64  -63  62  0
64  61  62  0
-66  65  64  0
-66  63  -64  0
68  65  66  0
70  69  67  0
70  67  68  0
72  71  -70  0
72  -71  -69  0
-74  -73  -72  0
76  -75  -74  0
78  77  -76  0
78  75  -76  0
80  79  78  0
-80  -79  -77  0
80  -77  78  0
-82  -81  80  0
82  -81  -79  0
-86  -83  -84  0
-88  -87  86  0
-88  85  86  0
-90  -89  -87  0
92  91  90  0
-94  -93  92  0
-94  -93  -91  0
-96  -95  -94  0
96  -95  93  0
98  -97  -95  0
98  -95  -96  0
-100  99  98  0
-100  -99  97  0
100  97  98  0
-102  101  100  0
102  -101  -99  0
-102  -99  100  0
-104  -103  -101  0
-104  101  -102  0
106  -105  -104  0
-106  -105  -103  0
108  107  -106  0
108  107  105  0
108  -105  -106  0
-110  109  108  0
-112  111  -110  0
114  113  -111  0
-114  111  112  0
-118  -117  -116  0
118  117  115  0
118  -115  116  0
-120  -119  -118  0
-120  117  118  0
-122  -121  120  0
122  121  -119  0
122  119  -120  0
124  -123  -121  0
-126  -125  -124  0
-126  125  -123  0
126  123  124  0
128  -127  125  0
-128  125  126  0
130  129  -128  0
-130  129  127  0
-130  127  128  0
132  131  130  0
132  131  129  0
132  -129  -130  0
-134  -133  132  0
134  -131  132  0
-136  -135  134  0
138  137  -136  0
138  137  135  0
140  139  -138  0
-140  -139  137  0
140  -137  138  0
-142  141  140  0
144  -143  -141  0
144  -141  -142  0
-148  147  -146  0
-148  -147  -145  0
148  -145  146  0
-150  149  -148  0
150  -149  -147  0
-150  -147  -148  0
152  -151  -150  0
154  -153  -152  0
154  -153  -151  0
-154  151  -152  0
-156  155  -154  0
156  153  154  0
-160  159  -157  0
162  -159  -160  0
164  161  -162  0
-166  -165  164  0
166  165  -163  0
166  163  -164  0
-170  169  -168  0
170  -167  168  0
172  171  -170  0
-172  -171  -169  0
174  173  172  0
174  -173  -171  0
174  -171  -172  0
-176  175  -173  0
178  -177  176  0
-178  177  175  0
178  175  -176  0
180  -179  178  0
-180  177  178  0
182  181  -180  0
182  181  179  0
184  -183  -181  0
184  -181  -182  0
-186  -185  183  0
186  183  -184  0
-188  -187  -186  0
188  -187  -185  0
-190  189  -187  0
190  187  188  0
192  -191  -190  0
192  191  189  0
-192  189  -190  0
-194  193  -192  0
-194  191  -192  0
196  195  194  0
196  -195  193  0
-196  -193  194  0
198  197  196  0
-200  199  197  0
-200  197  -198  0
